c File: instances/30_0.45_1.col
c
c Description: Random graph of size 30 vertices and P(0.44999999999999996) of edges between any two vertices.
p col 30 435
e 1 7
e 1 8
e 1 9
e 1 10
e 1 11
e 1 16
e 1 17
e 1 19
e 1 24
e 1 26
e 1 28
e 1 29
e 2 4
e 2 5
e 2 7
e 2 8
e 2 9
e 2 10
e 2 12
e 2 13
e 2 16
e 2 18
e 2 20
e 2 21
e 2 24
e 2 27
e 2 30
e 3 5
e 3 8
e 3 9
e 3 10
e 3 17
e 3 18
e 3 21
e 3 22
e 3 24
e 3 25
e 3 29
e 3 30
e 4 6
e 4 8
e 4 10
e 4 11
e 4 13
e 4 14
e 4 15
e 4 16
e 4 19
e 4 20
e 4 21
e 4 22
e 4 23
e 4 25
e 4 27
e 4 28
e 4 30
e 5 6
e 5 10
e 5 11
e 5 14
e 5 15
e 5 17
e 5 18
e 5 19
e 5 21
e 5 23
e 5 24
e 5 25
e 5 27
e 6 7
e 6 9
e 6 11
e 6 12
e 6 13
e 6 19
e 6 22
e 6 23
e 6 24
e 6 26
e 6 28
e 7 8
e 7 10
e 7 13
e 7 19
e 7 20
e 7 22
e 7 24
e 7 29
e 8 9
e 8 11
e 8 13
e 8 15
e 8 16
e 8 21
e 8 23
e 8 25
e 8 27
e 8 29
e 9 11
e 9 15
e 9 16
e 9 17
e 9 18
e 9 19
e 9 24
e 9 28
e 9 29
e 9 30
e 10 14
e 10 17
e 10 18
e 10 21
e 10 22
e 10 23
e 10 24
e 10 25
e 10 28
e 11 12
e 11 16
e 11 17
e 11 18
e 11 19
e 11 22
e 11 23
e 11 24
e 11 27
e 12 13
e 12 14
e 12 16
e 12 17
e 12 19
e 12 24
e 12 27
e 12 29
e 13 16
e 13 18
e 13 20
e 13 22
e 13 23
e 13 28
e 14 22
e 14 25
e 14 26
e 14 27
e 14 30
e 15 16
e 15 20
e 15 23
e 15 25
e 15 26
e 15 28
e 16 18
e 16 19
e 16 20
e 16 22
e 16 25
e 16 29
e 17 19
e 17 21
e 17 23
e 17 24
e 17 25
e 17 27
e 17 29
e 17 30
e 18 19
e 18 21
e 18 22
e 18 23
e 18 24
e 18 29
e 19 26
e 19 27
e 19 29
e 20 23
e 20 27
e 20 28
e 20 29
e 21 22
e 21 23
e 21 25
e 21 29
e 22 23
e 22 27
e 22 28
e 23 25
e 23 27
e 23 28
e 23 29
e 23 30
e 24 27
e 24 28
e 25 30
e 26 27
e 26 29
e 27 28
e 28 30